c description: Tseitin formula on Random 4-regular graph of 53 vertices, with odd charge
c generator: CNFgen (0.9.2)
c copyright: (C) 2012-2022 Massimo Lauria <massimo.lauria@uniroma1.it>
c url: https://massimolauria.net/cnfgen
c command line: cnfgen tseitin 53
c
p cnf 106 424
1 2 3 4 0
1 2 -3 -4 0
1 -2 3 -4 0
1 -2 -3 4 0
-1 2 3 -4 0
-1 2 -3 4 0
-1 -2 3 4 0
-1 -2 -3 -4 0
5 6 7 -8 0
5 6 -7 8 0
5 -6 7 8 0
5 -6 -7 -8 0
-5 6 7 8 0
-5 6 -7 -8 0
-5 -6 7 -8 0
-5 -6 -7 8 0
9 10 11 -12 0
9 10 -11 12 0
9 -10 11 12 0
9 -10 -11 -12 0
-9 10 11 12 0
-9 10 -11 -12 0
-9 -10 11 -12 0
-9 -10 -11 12 0
13 14 15 -16 0
13 14 -15 16 0
13 -14 15 16 0
13 -14 -15 -16 0
-13 14 15 16 0
-13 14 -15 -16 0
-13 -14 15 -16 0
-13 -14 -15 16 0
1 17 18 -19 0
1 17 -18 19 0
1 -17 18 19 0
1 -17 -18 -19 0
-1 17 18 19 0
-1 17 -18 -19 0
-1 -17 18 -19 0
-1 -17 -18 19 0
9 20 21 22 0
9 20 -21 -22 0
9 -20 21 -22 0
9 -20 -21 22 0
-9 20 21 -22 0
-9 20 -21 22 0
-9 -20 21 22 0
-9 -20 -21 -22 0
23 24 25 -26 0
23 24 -25 26 0
23 -24 25 26 0
23 -24 -25 -26 0
-23 24 25 26 0
-23 24 -25 -26 0
-23 -24 25 -26 0
-23 -24 -25 26 0
13 27 28 29 0
13 27 -28 -29 0
13 -27 28 -29 0
13 -27 -28 29 0
-13 27 28 -29 0
-13 27 -28 29 0
-13 -27 28 29 0
-13 -27 -28 -29 0
23 30 31 32 0
23 30 -31 -32 0
23 -30 31 -32 0
23 -30 -31 32 0
-23 30 31 -32 0
-23 30 -31 32 0
-23 -30 31 32 0
-23 -30 -31 -32 0
33 34 35 36 0
33 34 -35 -36 0
33 -34 35 -36 0
33 -34 -35 36 0
-33 34 35 -36 0
-33 34 -35 36 0
-33 -34 35 36 0
-33 -34 -35 -36 0
37 38 39 40 0
37 38 -39 -40 0
37 -38 39 -40 0
37 -38 -39 40 0
-37 38 39 -40 0
-37 38 -39 40 0
-37 -38 39 40 0
-37 -38 -39 -40 0
24 27 41 42 0
24 27 -41 -42 0
24 -27 41 -42 0
24 -27 -41 42 0
-24 27 41 -42 0
-24 27 -41 42 0
-24 -27 41 42 0
-24 -27 -41 -42 0
30 43 44 45 0
30 43 -44 -45 0
30 -43 44 -45 0
30 -43 -44 45 0
-30 43 44 -45 0
-30 43 -44 45 0
-30 -43 44 45 0
-30 -43 -44 -45 0
14 25 46 -47 0
14 25 -46 47 0
14 -25 46 47 0
14 -25 -46 -47 0
-14 25 46 47 0
-14 25 -46 -47 0
-14 -25 46 -47 0
-14 -25 -46 47 0
48 49 50 51 0
48 49 -50 -51 0
48 -49 50 -51 0
48 -49 -50 51 0
-48 49 50 -51 0
-48 49 -50 51 0
-48 -49 50 51 0
-48 -49 -50 -51 0
28 33 52 -53 0
28 33 -52 53 0
28 -33 52 53 0
28 -33 -52 -53 0
-28 33 52 53 0
-28 33 -52 -53 0
-28 -33 52 -53 0
-28 -33 -52 53 0
41 48 54 -55 0
41 48 -54 55 0
41 -48 54 55 0
41 -48 -54 -55 0
-41 48 54 55 0
-41 48 -54 -55 0
-41 -48 54 -55 0
-41 -48 -54 55 0
17 56 57 58 0
17 56 -57 -58 0
17 -56 57 -58 0
17 -56 -57 58 0
-17 56 57 -58 0
-17 56 -57 58 0
-17 -56 57 58 0
-17 -56 -57 -58 0
49 59 60 -61 0
49 59 -60 61 0
49 -59 60 61 0
49 -59 -60 -61 0
-49 59 60 61 0
-49 59 -60 -61 0
-49 -59 60 -61 0
-49 -59 -60 61 0
62 63 64 65 0
62 63 -64 -65 0
62 -63 64 -65 0
62 -63 -64 65 0
-62 63 64 -65 0
-62 63 -64 65 0
-62 -63 64 65 0
-62 -63 -64 -65 0
62 66 67 -68 0
62 66 -67 68 0
62 -66 67 68 0
62 -66 -67 -68 0
-62 66 67 68 0
-62 66 -67 -68 0
-62 -66 67 -68 0
-62 -66 -67 68 0
56 69 70 -71 0
56 69 -70 71 0
56 -69 70 71 0
56 -69 -70 -71 0
-56 69 70 71 0
-56 69 -70 -71 0
-56 -69 70 -71 0
-56 -69 -70 71 0
72 73 74 -75 0
72 73 -74 75 0
72 -73 74 75 0
72 -73 -74 -75 0
-72 73 74 75 0
-72 73 -74 -75 0
-72 -73 74 -75 0
-72 -73 -74 75 0
18 54 76 -77 0
18 54 -76 77 0
18 -54 76 77 0
18 -54 -76 -77 0
-18 54 76 77 0
-18 54 -76 -77 0
-18 -54 76 -77 0
-18 -54 -76 77 0
34 37 43 -78 0
34 37 -43 78 0
34 -37 43 78 0
34 -37 -43 -78 0
-34 37 43 78 0
-34 37 -43 -78 0
-34 -37 43 -78 0
-34 -37 -43 78 0
20 76 79 80 0
20 76 -79 -80 0
20 -76 79 -80 0
20 -76 -79 80 0
-20 76 79 -80 0
-20 76 -79 80 0
-20 -76 79 80 0
-20 -76 -79 -80 0
81 82 83 -84 0
81 82 -83 84 0
81 -82 83 84 0
81 -82 -83 -84 0
-81 82 83 84 0
-81 82 -83 -84 0
-81 -82 83 -84 0
-81 -82 -83 84 0
2 63 69 72 0
2 63 -69 -72 0
2 -63 69 -72 0
2 -63 -69 72 0
-2 63 69 -72 0
-2 63 -69 72 0
-2 -63 69 72 0
-2 -63 -69 -72 0
3 5 46 59 0
3 5 -46 -59 0
3 -5 46 -59 0
3 -5 -46 59 0
-3 5 46 -59 0
-3 5 -46 59 0
-3 -5 46 59 0
-3 -5 -46 -59 0
26 73 85 -86 0
26 73 -85 86 0
26 -73 85 86 0
26 -73 -85 -86 0
-26 73 85 86 0
-26 73 -85 -86 0
-26 -73 85 -86 0
-26 -73 -85 86 0
21 35 57 87 0
21 35 -57 -87 0
21 -35 57 -87 0
21 -35 -57 87 0
-21 35 57 -87 0
-21 35 -57 87 0
-21 -35 57 87 0
-21 -35 -57 -87 0
15 66 85 88 0
15 66 -85 -88 0
15 -66 85 -88 0
15 -66 -85 88 0
-15 66 85 -88 0
-15 66 -85 88 0
-15 -66 85 88 0
-15 -66 -85 -88 0
55 79 89 90 0
55 79 -89 -90 0
55 -79 89 -90 0
55 -79 -89 90 0
-55 79 89 -90 0
-55 79 -89 90 0
-55 -79 89 90 0
-55 -79 -89 -90 0
6 50 60 91 0
6 50 -60 -91 0
6 -50 60 -91 0
6 -50 -60 91 0
-6 50 60 -91 0
-6 50 -60 91 0
-6 -50 60 91 0
-6 -50 -60 -91 0
19 64 87 -92 0
19 64 -87 92 0
19 -64 87 92 0
19 -64 -87 -92 0
-19 64 87 92 0
-19 64 -87 -92 0
-19 -64 87 -92 0
-19 -64 -87 92 0
10 70 93 94 0
10 70 -93 -94 0
10 -70 93 -94 0
10 -70 -93 94 0
-10 70 93 -94 0
-10 70 -93 94 0
-10 -70 93 94 0
-10 -70 -93 -94 0
67 95 96 97 0
67 95 -96 -97 0
67 -95 96 -97 0
67 -95 -96 97 0
-67 95 96 -97 0
-67 95 -96 97 0
-67 -95 96 97 0
-67 -95 -96 -97 0
4 11 98 -99 0
4 11 -98 99 0
4 -11 98 99 0
4 -11 -98 -99 0
-4 11 98 99 0
-4 11 -98 -99 0
-4 -11 98 -99 0
-4 -11 -98 99 0
12 31 44 -100 0
12 31 -44 100 0
12 -31 44 100 0
12 -31 -44 -100 0
-12 31 44 100 0
-12 31 -44 -100 0
-12 -31 44 -100 0
-12 -31 -44 100 0
45 91 98 101 0
45 91 -98 -101 0
45 -91 98 -101 0
45 -91 -98 101 0
-45 91 98 -101 0
-45 91 -98 101 0
-45 -91 98 101 0
-45 -91 -98 -101 0
38 52 80 -92 0
38 52 -80 92 0
38 -52 80 92 0
38 -52 -80 -92 0
-38 52 80 92 0
-38 52 -80 -92 0
-38 -52 80 -92 0
-38 -52 -80 92 0
7 32 88 -95 0
7 32 -88 95 0
7 -32 88 95 0
7 -32 -88 -95 0
-7 32 88 95 0
-7 32 -88 -95 0
-7 -32 88 -95 0
-7 -32 -88 95 0
16 36 47 101 0
16 36 -47 -101 0
16 -36 47 -101 0
16 -36 -47 101 0
-16 36 47 -101 0
-16 36 -47 101 0
-16 -36 47 101 0
-16 -36 -47 -101 0
61 81 102 -103 0
61 81 -102 103 0
61 -81 102 103 0
61 -81 -102 -103 0
-61 81 102 103 0
-61 81 -102 -103 0
-61 -81 102 -103 0
-61 -81 -102 103 0
51 77 99 104 0
51 77 -99 -104 0
51 -77 99 -104 0
51 -77 -99 104 0
-51 77 99 -104 0
-51 77 -99 104 0
-51 -77 99 104 0
-51 -77 -99 -104 0
22 65 105 106 0
22 65 -105 -106 0
22 -65 105 -106 0
22 -65 -105 106 0
-22 65 105 -106 0
-22 65 -105 106 0
-22 -65 105 106 0
-22 -65 -105 -106 0
42 58 78 -105 0
42 58 -78 105 0
42 -58 78 105 0
42 -58 -78 -105 0
-42 58 78 105 0
-42 58 -78 -105 0
-42 -58 78 -105 0
-42 -58 -78 105 0
29 53 74 86 0
29 53 -74 -86 0
29 -53 74 -86 0
29 -53 -74 86 0
-29 53 74 -86 0
-29 53 -74 86 0
-29 -53 74 86 0
-29 -53 -74 -86 0
75 82 89 96 0
75 82 -89 -96 0
75 -82 89 -96 0
75 -82 -89 96 0
-75 82 89 -96 0
-75 82 -89 96 0
-75 -82 89 96 0
-75 -82 -89 -96 0
39 90 93 102 0
39 90 -93 -102 0
39 -90 93 -102 0
39 -90 -93 102 0
-39 90 93 -102 0
-39 90 -93 102 0
-39 -90 93 102 0
-39 -90 -93 -102 0
40 83 94 -106 0
40 83 -94 106 0
40 -83 94 106 0
40 -83 -94 -106 0
-40 83 94 106 0
-40 83 -94 -106 0
-40 -83 94 -106 0
-40 -83 -94 106 0
8 68 100 103 0
8 68 -100 -103 0
8 -68 100 -103 0
8 -68 -100 103 0
-8 68 100 -103 0
-8 68 -100 103 0
-8 -68 100 103 0
-8 -68 -100 -103 0
71 84 97 104 0
71 84 -97 -104 0
71 -84 97 -104 0
71 -84 -97 104 0
-71 84 97 -104 0
-71 84 -97 104 0
-71 -84 97 104 0
-71 -84 -97 -104 0
